p ocr 287 254 611
1 289
1 290
1 292
1 293
1 294
2 290
2 292
2 294
2 295
2 296
4 294
4 295
4 297
4 299
5 296
5 297
6 294
6 295
6 297
6 298
7 298
7 299
7 301
8 297
8 300
9 298
9 300
9 302
10 299
10 300
10 301
10 302
10 303
11 303
12 300
12 302
12 303
13 303
13 304
13 306
14 305
14 307
15 303
15 304
15 306
15 308
17 306
17 307
17 308
17 309
18 307
18 309
19 307
19 308
19 309
21 308
21 309
23 309
23 310
24 309
24 310
24 311
25 309
26 310
27 310
28 310
28 312
29 310
29 311
30 310
30 313
31 310
31 315
32 313
32 316
33 313
33 315
33 317
33 319
34 314
34 316
34 319
35 320
36 316
36 318
36 320
36 322
37 319
37 323
37 324
38 320
38 321
38 323
38 326
38 328
39 326
39 327
39 329
39 330
39 332
39 333
40 330
40 333
40 335
40 336
40 337
41 334
41 337
42 335
42 337
42 338
43 338
43 339
44 335
44 336
44 339
45 337
45 340
46 338
46 339
48 339
49 339
49 340
49 341
49 343
50 339
50 343
51 339
51 341
51 342
52 342
52 343
52 344
52 346
53 342
53 348
54 342
54 343
54 346
54 347
55 344
55 348
56 348
56 350
57 349
58 350
59 347
59 348
59 349
60 349
60 350
61 349
61 351
62 350
62 351
63 349
63 351
64 350
64 352
66 354
67 352
67 353
67 354
68 353
68 355
68 356
69 355
69 358
70 355
70 359
71 354
71 355
71 357
71 359
72 356
72 357
73 359
73 360
73 361
74 359
74 361
75 359
75 360
75 363
75 365
76 359
76 361
76 364
76 366
77 362
77 364
77 366
79 364
79 367
80 365
80 366
80 367
81 367
81 368
82 366
82 367
82 368
83 366
83 368
83 371
84 367
84 371
85 368
85 370
85 371
85 372
86 369
86 372
86 373
86 375
86 376
87 371
87 374
87 377
88 373
88 375
88 379
90 376
90 378
90 379
90 380
90 381
90 382
90 384
90 385
91 379
91 381
91 382
91 384
91 385
91 386
92 390
92 392
92 393
92 394
93 390
93 394
94 389
94 390
94 393
94 395
95 393
95 395
95 396
96 393
96 394
96 395
96 396
97 397
97 398
97 399
97 402
98 396
98 397
98 398
98 400
98 401
98 402
99 399
99 400
99 402
99 404
99 406
99 407
100 401
100 404
101 408
102 405
102 406
102 409
102 410
103 406
103 408
103 409
104 407
104 411
105 409
105 411
106 409
106 410
106 413
106 414
107 409
107 415
108 411
108 415
108 416
109 415
110 415
111 413
111 416
111 417
112 416
113 416
114 418
114 419
115 418
116 418
117 418
117 419
117 420
117 421
117 423
117 424
118 419
118 420
118 422
118 424
119 421
119 423
119 424
119 426
119 427
119 428
120 423
120 426
120 429
120 430
120 431
121 424
121 430
122 428
122 430
123 431
123 432
124 429
124 430
124 432
124 434
125 430
125 432
125 434
126 431
126 433
126 434
127 432
127 434
127 435
128 435
128 436
128 437
128 439
128 440
128 441
128 442
129 439
129 442
130 439
132 440
132 441
132 442
132 443
132 444
132 445
133 444
134 442
134 443
135 443
135 444
135 445
135 446
135 447
135 450
136 443
136 445
136 446
136 449
136 450
136 451
137 448
137 451
137 453
137 455
138 451
138 453
138 454
138 456
139 458
140 456
141 455
142 455
142 459
142 460
143 456
143 462
143 463
143 464
144 461
144 463
144 465
144 467
144 469
145 463
145 465
145 468
145 470
146 467
146 468
146 469
147 468
147 470
147 471
148 470
149 469
149 470
149 471
150 471
150 472
151 469
151 471
151 472
152 471
152 472
154 471
154 473
154 474
155 472
155 473
156 474
156 476
157 472
157 476
158 472
158 474
158 475
159 475
159 476
159 477
159 478
160 474
160 475
160 477
160 479
160 480
161 478
161 481
162 478
162 479
162 480
162 483
163 478
163 481
163 482
163 483
165 481
166 483
168 482
169 482
169 483
169 485
170 485
170 486
171 484
172 486
173 484
173 486
173 490
173 493
174 488
174 489
174 491
174 493
175 488
175 490
175 492
175 493
176 494
176 497
177 494
177 498
178 491
178 492
178 494
178 495
178 496
178 498
179 496
179 497
179 498
179 499
179 500
180 497
180 498
180 499
180 500
181 500
181 501
182 499
182 502
183 499
183 502
184 499
184 500
185 504
185 505
186 501
186 502
186 503
186 505
187 502
187 503
188 503
188 504
188 505
188 506
188 507
189 504
189 505
189 507
189 508
189 509
190 506
190 507
191 508
191 509
191 510
191 511
192 509
193 508
193 510
193 511
193 512
194 509
194 512
195 510
196 511
196 512
197 512
197 513
197 514
198 511
198 512
198 513
198 514
198 515
199 513
199 514
200 515
201 513
201 514
201 515
201 516
202 514
202 515
202 517
202 518
202 519
203 516
203 517
204 518
204 520
204 521
205 519
205 520
205 522
206 518
206 523
206 524
207 520
207 523
208 523
208 526
209 521
209 524
209 526
209 527
210 522
210 524
210 525
210 530
211 528
211 529
211 530
211 531
211 532
211 533
212 529
212 534
213 532
213 533
213 534
214 534
214 535
214 536
214 537
215 533
215 536
217 533
217 536
218 535
218 539
219 536
219 537
219 539
219 540
220 537
220 540
221 537
221 540
222 540
222 541
224 539
224 541
225 540
226 540
227 541